r = [
0,2,2,10,4,9,9,12,11,8,2,0
];
p = [
0,1,13,5,17,6,24,8,11,14,29,0
];
e = [
0,20,5,7,9,8,12,4,13,16,3,0
];
d = [
0,112,114,127,117,118,122,130,128,125,114,131
];
d_bar = [
0,113,115,128,119,119,124,131,129,126,117,131
];
w = [
0,20,5,7,4.5,8,6,4,13,16,1,0
];
